
Gurobi 7.5.2 (linux64) logging started Sat Jun 23 16:46:06 2018

Changed value of parameter LogFile to result/ilp/simNo_10-n_100-m_40-s_7-minVAF_0.05-cov_2000-k_1-fn_0.25-fp_0.0001-na_0.15.ILP.gurobiSolverLog
   Prev: gurobi.log  Default: 
Changed value of parameter TimeLimit to 86400.0
   Prev: 1e+100  Min: 0.0  Max: 1e+100  Default: 1e+100
Optimize a model with 1265601 rows, 330440 columns and 3489120 nonzeros
Variable types: 0 continuous, 330440 integer (330440 binary)
Coefficient statistics:
  Matrix range     [5e-04, 2e+00]
  Objective range  [1e+00, 2e+01]
  Bounds range     [1e+00, 1e+00]
  RHS range        [5e-02, 2e+00]
Found heuristic solution: objective -6062.990475
Presolve removed 399059 rows and 227083 columns (presolve time = 7s) ...
Presolve removed 399059 rows and 227083 columns (presolve time = 10s) ...
Presolve removed 399678 rows and 227083 columns (presolve time = 15s) ...
Presolve removed 400190 rows and 227083 columns (presolve time = 20s) ...
Presolve removed 400190 rows and 227083 columns (presolve time = 25s) ...
Presolve removed 400190 rows and 227083 columns (presolve time = 30s) ...
Presolve removed 400190 rows and 227083 columns (presolve time = 35s) ...
Presolve removed 400190 rows and 227083 columns (presolve time = 43s) ...
Presolve removed 400190 rows and 227083 columns (presolve time = 46s) ...
Presolve removed 400190 rows and 227083 columns
Presolve time: 46.13s
Presolved: 865411 rows, 103357 columns, 2409329 nonzeros
Variable types: 0 continuous, 103357 integer (103357 binary)
Presolved: 103357 rows, 968768 columns, 2512686 nonzeros

Presolve removed 103357 rows and 968768 columns

Root simplex log...

Iteration    Objective       Primal Inf.    Dual Inf.      Time
       0    2.2143562e+01   0.000000e+00   4.671000e+04     56s
   13600   -1.3407438e+02   0.000000e+00   1.167700e+04     60s
   15012   -1.3963600e+02   0.000000e+00   0.000000e+00     62s
   15012   -1.3963600e+02   0.000000e+00   0.000000e+00     65s

Root relaxation: objective -1.396360e+02, 15012 iterations, 15.28 seconds
Total elapsed time = 66.50s
Total elapsed time = 87.52s
Total elapsed time = 95.47s

    Nodes    |    Current Node    |     Objective Bounds      |     Work
 Expl Unexpl |  Obj  Depth IntInf | Incumbent    BestBd   Gap | It/Node Time

     0     0 -139.63600    0  613 -6062.9905 -139.63600  97.7%     -  102s
H    0     0                    -156.8055440 -139.63600  10.9%     -  120s
     0     0 -142.69468    0  614 -156.80554 -142.69468  9.00%     -  138s
     0     0 -142.75516    0  494 -156.80554 -142.75516  8.96%     -  159s
     0     0 -145.08964    0  519 -156.80554 -145.08964  7.47%     -  176s
     0     0 -145.15927    0  537 -156.80554 -145.15927  7.43%     -  192s
     0     0 -145.96687    0  537 -156.80554 -145.96687  6.91%     -  207s
     0     0 -146.08768    0  408 -156.80554 -146.08768  6.84%     -  225s
     0     0 -146.08768    0  408 -156.80554 -146.08768  6.84%     -  231s
     0     0 -146.87044    0  568 -156.80554 -146.87044  6.34%     -  245s
     0     0 -147.48310    0  571 -156.80554 -147.48310  5.95%     -  260s
     0     0 -148.26436    0  539 -156.80554 -148.26436  5.45%     -  272s
     0     0 -148.26436    0  539 -156.80554 -148.26436  5.45%     -  283s
     0     0 -148.26436    0  533 -156.80554 -148.26436  5.45%     -  295s
     0     0 -148.67280    0  534 -156.80554 -148.67280  5.19%     -  307s
     0     0 -149.08125    0  562 -156.80554 -149.08125  4.93%     -  349s
     0     0 -149.28547    0  569 -156.80554 -149.28547  4.80%     -  388s
     0     0 -149.28547    0  567 -156.80554 -149.28547  4.80%     -  399s
     0     0 -149.59180    0  587 -156.80554 -149.59180  4.60%     -  433s
     0     0 -149.59180    0  328 -156.80554 -149.59180  4.60%     - 1254s
     0     0 -149.59180    0  321 -156.80554 -149.59180  4.60%     - 1268s
     0     0 -149.59180    0  325 -156.80554 -149.59180  4.60%     - 1273s
     0     0 -149.59180    0  327 -156.80554 -149.59180  4.60%     - 1275s
     0     0 -150.48245    0  230 -156.80554 -150.48245  4.03%     - 1278s
     0     0 -150.66625    0  233 -156.80554 -150.66625  3.92%     - 1282s
     0     0 -150.66625    0  237 -156.80554 -150.66625  3.92%     - 1285s
     0     0 -150.66625    0  238 -156.80554 -150.66625  3.92%     - 1289s
     0     0 -150.66625    0  231 -156.80554 -150.66625  3.92%     - 1293s
     0     0 -150.66625    0  231 -156.80554 -150.66625  3.92%     - 1296s
     0     0 -150.97258    0  234 -156.80554 -150.97258  3.72%     - 1305s
     0     0 -150.97258    0  238 -156.80554 -150.97258  3.72%     - 1309s
     0     0 -151.04916    0  237 -156.80554 -151.04916  3.67%     - 1317s
     0     0 -151.04916    0  309 -156.80554 -151.04916  3.67%     - 1341s
     0     0 -151.04916    0  234 -156.80554 -151.04916  3.67%     - 1347s
     0     0 -151.04916    0  246 -156.80554 -151.04916  3.67%     - 1348s
     0     0 -151.04916    0  246 -156.80554 -151.04916  3.67%     - 1349s
     0     0 -151.09073    0  246 -156.80554 -151.09073  3.64%     - 1349s
     0     0 -151.09073    0  247 -156.80554 -151.09073  3.64%     - 1350s
     0     0 -152.76462    0  242 -156.80554 -152.76462  2.58%     - 1351s
     0     0 -152.86139    0  267 -156.80554 -152.86139  2.52%     - 1353s
     0     0 -152.86139    0  267 -156.80554 -152.86139  2.52%     - 1354s
     0     0 -153.24665    0   59 -156.80554 -153.24665  2.27%     - 1356s
     0     0 -153.24665    0  179 -156.80554 -153.24665  2.27%     - 1364s
H    0     0                    -155.2386159 -153.24665  1.28%     - 1365s
     0     0 -153.24665    0  144 -155.23862 -153.24665  1.28%     - 1365s
     0     0 -153.41745    0  119 -155.23862 -153.41745  1.17%     - 1366s
     0     0 -153.72379    0  119 -155.23862 -153.72379  0.98%     - 1367s
     0     0 -153.98372    0  127 -155.23862 -153.98372  0.81%     - 1367s
     0     0 -154.00059    0  126 -155.23862 -154.00059  0.80%     - 1368s
     0     0 -154.03012    0  117 -155.23862 -154.03012  0.78%     - 1368s
     0     0 -154.33645    0  104 -155.23862 -154.33645  0.58%     - 1370s
     0     0 -154.33645    0   45 -155.23862 -154.33645  0.58%     - 1372s
     0     0     cutoff    0      -155.23862 -155.23862  0.00%     - 1373s

Cutting planes:
  Gomory: 1
  Implied bound: 1
  Clique: 1
  Zero half: 6

Explored 1 nodes (51972 simplex iterations) in 1373.34 seconds
Thread count was 1 (of 80 available processors)

Solution count 7: -155.239 -155.239 -156.806 ... -6062.99

Optimal solution found (tolerance 1.00e-04)
Best objective -1.552386159294e+02, best bound -1.552386159294e+02, gap 0.0000%
